Instance name: /mnt/c/Users/ORG/CLionProjects/uMV-FSTSP/Murray_Chu_2015_test_data/FSTSP/FSTSP_10_customer_problems/20140810T123443v1

drone speed: 0.2 miles/minute
uav non-eligible customer: 4 8 
Printing number of nodes: 11

Gurobi Optimizer version 11.0.0 build v11.0.0rc2 (linux64 - "Ubuntu 22.04.3 LTS")

CPU model: 13th Gen Intel(R) Core(TM) i5-13500, instruction set [SSE2|AVX|AVX2]
Thread count: 10 physical cores, 20 logical processors, using up to 20 threads

Optimize a model with 44651 rows, 1957 columns and 1837624 nonzeros
Model fingerprint: 0x93e15c99
Variable types: 11 continuous, 1946 integer (1814 binary)
Coefficient statistics:
  Matrix range     [1e+00, 3e+01]
  Objective range  [1e+00, 3e+01]
  Bounds range     [1e+00, 1e+00]
  RHS range        [1e+00, 9e+00]
Found heuristic solution: objective 167.7410708
Presolve removed 37345 rows and 1384 columns
Presolve time: 2.24s
Presolved: 7306 rows, 573 columns, 187465 nonzeros
Variable types: 6 continuous, 567 integer (567 binary)
Found heuristic solution: objective 148.7227818

Root relaxation: objective 6.958647e+01, 103 iterations, 0.04 seconds (0.06 work units)

    Nodes    |    Current Node    |     Objective Bounds      |     Work
 Expl Unexpl |  Obj  Depth IntInf | Incumbent    BestBd   Gap | It/Node Time

*    0     0               0      69.5864732   69.58647  0.00%     -    2s

Explored 1 nodes (103 simplex iterations) in 2.34 seconds (4.25 work units)
Thread count was 20 (of 20 available processors)

Solution count 3: 69.5865 148.723 167.741 

Optimal solution found (tolerance 1.00e-04)
Best objective 6.958647322300e+01, best bound 6.958647322300e+01, gap 0.0000%
Truck arcs: 
0 9 7.36834
1 8 3.32128
2 1 8.59672
3 10 10.0243
4 7 7.34864
5 2 8.42508
6 5 0.968346
7 6 6.70095
8 11 1.11799
9 3 5.1822
10 4 10.5327
Theta:
Drone arcs:
Gamma:
Sigma:
Sigma_1 = 0
Sigma_2 = 0
Sigma_3 = 0
Sigma_4 = 0
Sigma_5 = 0
Sigma_6 = 0
Sigma_7 = 0
Sigma_8 = 0
Sigma_9 = 0
Sigma_10 = 0
Sigma_11 = 0
Objective: 69.5865
Number of sorties: 0
